\ Model maxClique
\ LP format - for model browsing. Use MPS format to capture full model detail.
Maximize
  C[0] + C[1] + C[2] + C[3] + C[4] + C[5] + C[6] + C[7] + C[8] + C[9]
   + C[10] + C[11] + C[12] + C[13] + C[14] + C[15] + C[16] + C[17] + C[18]
   + C[19] + C[20] + C[21] + C[22] + C[23] + C[24] + C[25] + C[26] + C[27]
   + C[28] + C[29] + C[30] + C[31] + C[32] + C[33] + C[34] + C[35] + C[36]
   + C[37] + C[38] + C[39] + C[40] + C[41] + C[42] + C[43] + C[44] + C[45]
   + C[46] + C[47] + C[48] + C[49] + C[50] + C[51] + C[52] + C[53] + C[54]
   + C[55]
Subject To
 R0: C[0] + C[1] <= 1
 R1: C[1] + C[2] <= 1
 R2: C[1] + C[3] <= 1
 R3: C[0] + C[4] <= 1
 R4: C[2] + C[4] <= 1
 R5: C[3] + C[4] <= 1
 R6: C[0] + C[5] <= 1
 R7: C[1] + C[5] <= 1
 R8: C[2] + C[5] <= 1
 R9: C[3] + C[5] <= 1
 R10: C[4] + C[5] <= 1
 R11: C[0] + C[6] <= 1
 R12: C[2] + C[6] <= 1
 R13: C[3] + C[6] <= 1
 R14: C[5] + C[6] <= 1
 R15: C[0] + C[7] <= 1
 R16: C[2] + C[7] <= 1
 R17: C[3] + C[7] <= 1
 R18: C[5] + C[7] <= 1
 R19: C[1] + C[8] <= 1
 R20: C[4] + C[8] <= 1
 R21: C[5] + C[8] <= 1
 R22: C[6] + C[8] <= 1
 R23: C[7] + C[8] <= 1
 R24: C[1] + C[9] <= 1
 R25: C[4] + C[9] <= 1
 R26: C[5] + C[9] <= 1
 R27: C[6] + C[9] <= 1
 R28: C[7] + C[9] <= 1
 R29: C[0] + C[10] <= 1
 R30: C[1] + C[10] <= 1
 R31: C[2] + C[10] <= 1
 R32: C[3] + C[10] <= 1
 R33: C[4] + C[10] <= 1
 R34: C[5] + C[10] <= 1
 R35: C[6] + C[10] <= 1
 R36: C[7] + C[10] <= 1
 R37: C[8] + C[10] <= 1
 R38: C[9] + C[10] <= 1
 R39: C[0] + C[11] <= 1
 R40: C[2] + C[11] <= 1
 R41: C[3] + C[11] <= 1
 R42: C[5] + C[11] <= 1
 R43: C[8] + C[11] <= 1
 R44: C[9] + C[11] <= 1
 R45: C[10] + C[11] <= 1
 R46: C[1] + C[12] <= 1
 R47: C[4] + C[12] <= 1
 R48: C[5] + C[12] <= 1
 R49: C[6] + C[12] <= 1
 R50: C[7] + C[12] <= 1
 R51: C[10] + C[12] <= 1
 R52: C[11] + C[12] <= 1
 R53: C[0] + C[13] <= 1
 R54: C[1] + C[13] <= 1
 R55: C[2] + C[13] <= 1
 R56: C[3] + C[13] <= 1
 R57: C[4] + C[13] <= 1
 R58: C[6] + C[13] <= 1
 R59: C[7] + C[13] <= 1
 R60: C[8] + C[13] <= 1
 R61: C[9] + C[13] <= 1
 R62: C[10] + C[13] <= 1
 R63: C[11] + C[13] <= 1
 R64: C[12] + C[13] <= 1
 R65: C[1] + C[14] <= 1
 R66: C[4] + C[14] <= 1
 R67: C[5] + C[14] <= 1
 R68: C[6] + C[14] <= 1
 R69: C[7] + C[14] <= 1
 R70: C[10] + C[14] <= 1
 R71: C[11] + C[14] <= 1
 R72: C[13] + C[14] <= 1
 R73: C[1] + C[15] <= 1
 R74: C[4] + C[15] <= 1
 R75: C[5] + C[15] <= 1
 R76: C[6] + C[15] <= 1
 R77: C[7] + C[15] <= 1
 R78: C[10] + C[15] <= 1
 R79: C[11] + C[15] <= 1
 R80: C[13] + C[15] <= 1
 R81: C[1] + C[16] <= 1
 R82: C[4] + C[16] <= 1
 R83: C[5] + C[16] <= 1
 R84: C[6] + C[16] <= 1
 R85: C[7] + C[16] <= 1
 R86: C[10] + C[16] <= 1
 R87: C[11] + C[16] <= 1
 R88: C[13] + C[16] <= 1
 R89: C[1] + C[17] <= 1
 R90: C[4] + C[17] <= 1
 R91: C[5] + C[17] <= 1
 R92: C[6] + C[17] <= 1
 R93: C[7] + C[17] <= 1
 R94: C[10] + C[17] <= 1
 R95: C[11] + C[17] <= 1
 R96: C[13] + C[17] <= 1
 R97: C[1] + C[18] <= 1
 R98: C[4] + C[18] <= 1
 R99: C[5] + C[18] <= 1
 R100: C[6] + C[18] <= 1
 R101: C[7] + C[18] <= 1
 R102: C[10] + C[18] <= 1
 R103: C[11] + C[18] <= 1
 R104: C[13] + C[18] <= 1
 R105: C[0] + C[19] <= 1
 R106: C[1] + C[19] <= 1
 R107: C[2] + C[19] <= 1
 R108: C[3] + C[19] <= 1
 R109: C[4] + C[19] <= 1
 R110: C[5] + C[19] <= 1
 R111: C[6] + C[19] <= 1
 R112: C[7] + C[19] <= 1
 R113: C[8] + C[19] <= 1
 R114: C[9] + C[19] <= 1
 R115: C[11] + C[19] <= 1
 R116: C[12] + C[19] <= 1
 R117: C[13] + C[19] <= 1
 R118: C[14] + C[19] <= 1
 R119: C[15] + C[19] <= 1
 R120: C[16] + C[19] <= 1
 R121: C[17] + C[19] <= 1
 R122: C[18] + C[19] <= 1
 R123: C[1] + C[20] <= 1
 R124: C[4] + C[20] <= 1
 R125: C[5] + C[20] <= 1
 R126: C[6] + C[20] <= 1
 R127: C[7] + C[20] <= 1
 R128: C[10] + C[20] <= 1
 R129: C[11] + C[20] <= 1
 R130: C[13] + C[20] <= 1
 R131: C[19] + C[20] <= 1
 R132: C[1] + C[21] <= 1
 R133: C[4] + C[21] <= 1
 R134: C[5] + C[21] <= 1
 R135: C[6] + C[21] <= 1
 R136: C[7] + C[21] <= 1
 R137: C[10] + C[21] <= 1
 R138: C[11] + C[21] <= 1
 R139: C[13] + C[21] <= 1
 R140: C[19] + C[21] <= 1
 R141: C[0] + C[22] <= 1
 R142: C[1] + C[22] <= 1
 R143: C[2] + C[22] <= 1
 R144: C[3] + C[22] <= 1
 R145: C[4] + C[22] <= 1
 R146: C[5] + C[22] <= 1
 R147: C[6] + C[22] <= 1
 R148: C[7] + C[22] <= 1
 R149: C[8] + C[22] <= 1
 R150: C[9] + C[22] <= 1
 R151: C[11] + C[22] <= 1
 R152: C[12] + C[22] <= 1
 R153: C[13] + C[22] <= 1
 R154: C[14] + C[22] <= 1
 R155: C[15] + C[22] <= 1
 R156: C[16] + C[22] <= 1
 R157: C[17] + C[22] <= 1
 R158: C[18] + C[22] <= 1
 R159: C[20] + C[22] <= 1
 R160: C[21] + C[22] <= 1
 R161: C[1] + C[23] <= 1
 R162: C[4] + C[23] <= 1
 R163: C[5] + C[23] <= 1
 R164: C[6] + C[23] <= 1
 R165: C[7] + C[23] <= 1
 R166: C[10] + C[23] <= 1
 R167: C[11] + C[23] <= 1
 R168: C[13] + C[23] <= 1
 R169: C[19] + C[23] <= 1
 R170: C[22] + C[23] <= 1
 R171: C[0] + C[24] <= 1
 R172: C[1] + C[24] <= 1
 R173: C[2] + C[24] <= 1
 R174: C[3] + C[24] <= 1
 R175: C[4] + C[24] <= 1
 R176: C[6] + C[24] <= 1
 R177: C[7] + C[24] <= 1
 R178: C[8] + C[24] <= 1
 R179: C[9] + C[24] <= 1
 R180: C[10] + C[24] <= 1
 R181: C[11] + C[24] <= 1
 R182: C[12] + C[24] <= 1
 R183: C[14] + C[24] <= 1
 R184: C[15] + C[24] <= 1
 R185: C[16] + C[24] <= 1
 R186: C[17] + C[24] <= 1
 R187: C[18] + C[24] <= 1
 R188: C[19] + C[24] <= 1
 R189: C[20] + C[24] <= 1
 R190: C[21] + C[24] <= 1
 R191: C[22] + C[24] <= 1
 R192: C[23] + C[24] <= 1
 R193: C[1] + C[25] <= 1
 R194: C[4] + C[25] <= 1
 R195: C[5] + C[25] <= 1
 R196: C[6] + C[25] <= 1
 R197: C[7] + C[25] <= 1
 R198: C[10] + C[25] <= 1
 R199: C[11] + C[25] <= 1
 R200: C[13] + C[25] <= 1
 R201: C[19] + C[25] <= 1
 R202: C[22] + C[25] <= 1
 R203: C[24] + C[25] <= 1
 R204: C[1] + C[26] <= 1
 R205: C[4] + C[26] <= 1
 R206: C[5] + C[26] <= 1
 R207: C[6] + C[26] <= 1
 R208: C[7] + C[26] <= 1
 R209: C[10] + C[26] <= 1
 R210: C[11] + C[26] <= 1
 R211: C[13] + C[26] <= 1
 R212: C[19] + C[26] <= 1
 R213: C[22] + C[26] <= 1
 R214: C[24] + C[26] <= 1
 R215: C[0] + C[27] <= 1
 R216: C[2] + C[27] <= 1
 R217: C[3] + C[27] <= 1
 R218: C[5] + C[27] <= 1
 R219: C[8] + C[27] <= 1
 R220: C[9] + C[27] <= 1
 R221: C[10] + C[27] <= 1
 R222: C[12] + C[27] <= 1
 R223: C[13] + C[27] <= 1
 R224: C[14] + C[27] <= 1
 R225: C[15] + C[27] <= 1
 R226: C[16] + C[27] <= 1
 R227: C[17] + C[27] <= 1
 R228: C[18] + C[27] <= 1
 R229: C[19] + C[27] <= 1
 R230: C[20] + C[27] <= 1
 R231: C[21] + C[27] <= 1
 R232: C[22] + C[27] <= 1
 R233: C[23] + C[27] <= 1
 R234: C[24] + C[27] <= 1
 R235: C[25] + C[27] <= 1
 R236: C[26] + C[27] <= 1
 R237: C[1] + C[28] <= 1
 R238: C[4] + C[28] <= 1
 R239: C[5] + C[28] <= 1
 R240: C[6] + C[28] <= 1
 R241: C[7] + C[28] <= 1
 R242: C[10] + C[28] <= 1
 R243: C[11] + C[28] <= 1
 R244: C[13] + C[28] <= 1
 R245: C[19] + C[28] <= 1
 R246: C[22] + C[28] <= 1
 R247: C[24] + C[28] <= 1
 R248: C[27] + C[28] <= 1
 R249: C[1] + C[29] <= 1
 R250: C[4] + C[29] <= 1
 R251: C[5] + C[29] <= 1
 R252: C[6] + C[29] <= 1
 R253: C[7] + C[29] <= 1
 R254: C[10] + C[29] <= 1
 R255: C[11] + C[29] <= 1
 R256: C[13] + C[29] <= 1
 R257: C[19] + C[29] <= 1
 R258: C[22] + C[29] <= 1
 R259: C[24] + C[29] <= 1
 R260: C[27] + C[29] <= 1
 R261: C[0] + C[30] <= 1
 R262: C[2] + C[30] <= 1
 R263: C[3] + C[30] <= 1
 R264: C[5] + C[30] <= 1
 R265: C[8] + C[30] <= 1
 R266: C[9] + C[30] <= 1
 R267: C[10] + C[30] <= 1
 R268: C[12] + C[30] <= 1
 R269: C[13] + C[30] <= 1
 R270: C[14] + C[30] <= 1
 R271: C[15] + C[30] <= 1
 R272: C[16] + C[30] <= 1
 R273: C[17] + C[30] <= 1
 R274: C[18] + C[30] <= 1
 R275: C[19] + C[30] <= 1
 R276: C[20] + C[30] <= 1
 R277: C[21] + C[30] <= 1
 R278: C[22] + C[30] <= 1
 R279: C[23] + C[30] <= 1
 R280: C[24] + C[30] <= 1
 R281: C[25] + C[30] <= 1
 R282: C[26] + C[30] <= 1
 R283: C[28] + C[30] <= 1
 R284: C[29] + C[30] <= 1
 R285: C[1] + C[31] <= 1
 R286: C[4] + C[31] <= 1
 R287: C[5] + C[31] <= 1
 R288: C[6] + C[31] <= 1
 R289: C[7] + C[31] <= 1
 R290: C[10] + C[31] <= 1
 R291: C[11] + C[31] <= 1
 R292: C[13] + C[31] <= 1
 R293: C[19] + C[31] <= 1
 R294: C[22] + C[31] <= 1
 R295: C[24] + C[31] <= 1
 R296: C[27] + C[31] <= 1
 R297: C[30] + C[31] <= 1
 R298: C[0] + C[32] <= 1
 R299: C[1] + C[32] <= 1
 R300: C[2] + C[32] <= 1
 R301: C[3] + C[32] <= 1
 R302: C[4] + C[32] <= 1
 R303: C[5] + C[32] <= 1
 R304: C[6] + C[32] <= 1
 R305: C[7] + C[32] <= 1
 R306: C[8] + C[32] <= 1
 R307: C[9] + C[32] <= 1
 R308: C[11] + C[32] <= 1
 R309: C[12] + C[32] <= 1
 R310: C[13] + C[32] <= 1
 R311: C[14] + C[32] <= 1
 R312: C[15] + C[32] <= 1
 R313: C[16] + C[32] <= 1
 R314: C[17] + C[32] <= 1
 R315: C[18] + C[32] <= 1
 R316: C[20] + C[32] <= 1
 R317: C[21] + C[32] <= 1
 R318: C[23] + C[32] <= 1
 R319: C[24] + C[32] <= 1
 R320: C[25] + C[32] <= 1
 R321: C[26] + C[32] <= 1
 R322: C[27] + C[32] <= 1
 R323: C[28] + C[32] <= 1
 R324: C[29] + C[32] <= 1
 R325: C[30] + C[32] <= 1
 R326: C[31] + C[32] <= 1
 R327: C[0] + C[33] <= 1
 R328: C[2] + C[33] <= 1
 R329: C[3] + C[33] <= 1
 R330: C[5] + C[33] <= 1
 R331: C[8] + C[33] <= 1
 R332: C[9] + C[33] <= 1
 R333: C[10] + C[33] <= 1
 R334: C[12] + C[33] <= 1
 R335: C[13] + C[33] <= 1
 R336: C[14] + C[33] <= 1
 R337: C[15] + C[33] <= 1
 R338: C[16] + C[33] <= 1
 R339: C[17] + C[33] <= 1
 R340: C[18] + C[33] <= 1
 R341: C[19] + C[33] <= 1
 R342: C[20] + C[33] <= 1
 R343: C[21] + C[33] <= 1
 R344: C[22] + C[33] <= 1
 R345: C[23] + C[33] <= 1
 R346: C[24] + C[33] <= 1
 R347: C[25] + C[33] <= 1
 R348: C[26] + C[33] <= 1
 R349: C[28] + C[33] <= 1
 R350: C[29] + C[33] <= 1
 R351: C[31] + C[33] <= 1
 R352: C[32] + C[33] <= 1
 R353: C[0] + C[34] <= 1
 R354: C[2] + C[34] <= 1
 R355: C[3] + C[34] <= 1
 R356: C[5] + C[34] <= 1
 R357: C[8] + C[34] <= 1
 R358: C[9] + C[34] <= 1
 R359: C[10] + C[34] <= 1
 R360: C[12] + C[34] <= 1
 R361: C[13] + C[34] <= 1
 R362: C[14] + C[34] <= 1
 R363: C[15] + C[34] <= 1
 R364: C[16] + C[34] <= 1
 R365: C[17] + C[34] <= 1
 R366: C[18] + C[34] <= 1
 R367: C[19] + C[34] <= 1
 R368: C[20] + C[34] <= 1
 R369: C[21] + C[34] <= 1
 R370: C[22] + C[34] <= 1
 R371: C[23] + C[34] <= 1
 R372: C[24] + C[34] <= 1
 R373: C[25] + C[34] <= 1
 R374: C[26] + C[34] <= 1
 R375: C[28] + C[34] <= 1
 R376: C[29] + C[34] <= 1
 R377: C[31] + C[34] <= 1
 R378: C[32] + C[34] <= 1
 R379: C[1] + C[35] <= 1
 R380: C[4] + C[35] <= 1
 R381: C[5] + C[35] <= 1
 R382: C[6] + C[35] <= 1
 R383: C[7] + C[35] <= 1
 R384: C[10] + C[35] <= 1
 R385: C[11] + C[35] <= 1
 R386: C[13] + C[35] <= 1
 R387: C[19] + C[35] <= 1
 R388: C[22] + C[35] <= 1
 R389: C[24] + C[35] <= 1
 R390: C[27] + C[35] <= 1
 R391: C[30] + C[35] <= 1
 R392: C[32] + C[35] <= 1
 R393: C[33] + C[35] <= 1
 R394: C[34] + C[35] <= 1
 R395: C[0] + C[36] <= 1
 R396: C[2] + C[36] <= 1
 R397: C[3] + C[36] <= 1
 R398: C[5] + C[36] <= 1
 R399: C[8] + C[36] <= 1
 R400: C[9] + C[36] <= 1
 R401: C[10] + C[36] <= 1
 R402: C[12] + C[36] <= 1
 R403: C[13] + C[36] <= 1
 R404: C[14] + C[36] <= 1
 R405: C[15] + C[36] <= 1
 R406: C[16] + C[36] <= 1
 R407: C[17] + C[36] <= 1
 R408: C[18] + C[36] <= 1
 R409: C[19] + C[36] <= 1
 R410: C[20] + C[36] <= 1
 R411: C[21] + C[36] <= 1
 R412: C[22] + C[36] <= 1
 R413: C[23] + C[36] <= 1
 R414: C[24] + C[36] <= 1
 R415: C[25] + C[36] <= 1
 R416: C[26] + C[36] <= 1
 R417: C[28] + C[36] <= 1
 R418: C[29] + C[36] <= 1
 R419: C[31] + C[36] <= 1
 R420: C[32] + C[36] <= 1
 R421: C[35] + C[36] <= 1
 R422: C[1] + C[37] <= 1
 R423: C[4] + C[37] <= 1
 R424: C[5] + C[37] <= 1
 R425: C[6] + C[37] <= 1
 R426: C[7] + C[37] <= 1
 R427: C[10] + C[37] <= 1
 R428: C[11] + C[37] <= 1
 R429: C[13] + C[37] <= 1
 R430: C[19] + C[37] <= 1
 R431: C[22] + C[37] <= 1
 R432: C[24] + C[37] <= 1
 R433: C[27] + C[37] <= 1
 R434: C[30] + C[37] <= 1
 R435: C[32] + C[37] <= 1
 R436: C[33] + C[37] <= 1
 R437: C[34] + C[37] <= 1
 R438: C[36] + C[37] <= 1
 R439: C[0] + C[38] <= 1
 R440: C[2] + C[38] <= 1
 R441: C[3] + C[38] <= 1
 R442: C[5] + C[38] <= 1
 R443: C[8] + C[38] <= 1
 R444: C[9] + C[38] <= 1
 R445: C[10] + C[38] <= 1
 R446: C[12] + C[38] <= 1
 R447: C[13] + C[38] <= 1
 R448: C[14] + C[38] <= 1
 R449: C[15] + C[38] <= 1
 R450: C[16] + C[38] <= 1
 R451: C[17] + C[38] <= 1
 R452: C[18] + C[38] <= 1
 R453: C[19] + C[38] <= 1
 R454: C[20] + C[38] <= 1
 R455: C[21] + C[38] <= 1
 R456: C[22] + C[38] <= 1
 R457: C[23] + C[38] <= 1
 R458: C[24] + C[38] <= 1
 R459: C[25] + C[38] <= 1
 R460: C[26] + C[38] <= 1
 R461: C[28] + C[38] <= 1
 R462: C[29] + C[38] <= 1
 R463: C[31] + C[38] <= 1
 R464: C[32] + C[38] <= 1
 R465: C[35] + C[38] <= 1
 R466: C[37] + C[38] <= 1
 R467: C[1] + C[39] <= 1
 R468: C[4] + C[39] <= 1
 R469: C[5] + C[39] <= 1
 R470: C[6] + C[39] <= 1
 R471: C[7] + C[39] <= 1
 R472: C[10] + C[39] <= 1
 R473: C[11] + C[39] <= 1
 R474: C[13] + C[39] <= 1
 R475: C[19] + C[39] <= 1
 R476: C[22] + C[39] <= 1
 R477: C[24] + C[39] <= 1
 R478: C[27] + C[39] <= 1
 R479: C[30] + C[39] <= 1
 R480: C[32] + C[39] <= 1
 R481: C[33] + C[39] <= 1
 R482: C[34] + C[39] <= 1
 R483: C[36] + C[39] <= 1
 R484: C[38] + C[39] <= 1
 R485: C[1] + C[40] <= 1
 R486: C[4] + C[40] <= 1
 R487: C[5] + C[40] <= 1
 R488: C[6] + C[40] <= 1
 R489: C[7] + C[40] <= 1
 R490: C[10] + C[40] <= 1
 R491: C[11] + C[40] <= 1
 R492: C[13] + C[40] <= 1
 R493: C[19] + C[40] <= 1
 R494: C[22] + C[40] <= 1
 R495: C[24] + C[40] <= 1
 R496: C[27] + C[40] <= 1
 R497: C[30] + C[40] <= 1
 R498: C[32] + C[40] <= 1
 R499: C[33] + C[40] <= 1
 R500: C[34] + C[40] <= 1
 R501: C[36] + C[40] <= 1
 R502: C[38] + C[40] <= 1
 R503: C[1] + C[41] <= 1
 R504: C[4] + C[41] <= 1
 R505: C[5] + C[41] <= 1
 R506: C[6] + C[41] <= 1
 R507: C[7] + C[41] <= 1
 R508: C[10] + C[41] <= 1
 R509: C[11] + C[41] <= 1
 R510: C[13] + C[41] <= 1
 R511: C[19] + C[41] <= 1
 R512: C[22] + C[41] <= 1
 R513: C[24] + C[41] <= 1
 R514: C[27] + C[41] <= 1
 R515: C[30] + C[41] <= 1
 R516: C[32] + C[41] <= 1
 R517: C[33] + C[41] <= 1
 R518: C[34] + C[41] <= 1
 R519: C[36] + C[41] <= 1
 R520: C[38] + C[41] <= 1
 R521: C[1] + C[42] <= 1
 R522: C[4] + C[42] <= 1
 R523: C[5] + C[42] <= 1
 R524: C[6] + C[42] <= 1
 R525: C[7] + C[42] <= 1
 R526: C[10] + C[42] <= 1
 R527: C[11] + C[42] <= 1
 R528: C[13] + C[42] <= 1
 R529: C[19] + C[42] <= 1
 R530: C[22] + C[42] <= 1
 R531: C[24] + C[42] <= 1
 R532: C[27] + C[42] <= 1
 R533: C[30] + C[42] <= 1
 R534: C[32] + C[42] <= 1
 R535: C[33] + C[42] <= 1
 R536: C[34] + C[42] <= 1
 R537: C[36] + C[42] <= 1
 R538: C[38] + C[42] <= 1
 R539: C[1] + C[43] <= 1
 R540: C[4] + C[43] <= 1
 R541: C[5] + C[43] <= 1
 R542: C[6] + C[43] <= 1
 R543: C[7] + C[43] <= 1
 R544: C[10] + C[43] <= 1
 R545: C[11] + C[43] <= 1
 R546: C[13] + C[43] <= 1
 R547: C[19] + C[43] <= 1
 R548: C[22] + C[43] <= 1
 R549: C[24] + C[43] <= 1
 R550: C[27] + C[43] <= 1
 R551: C[30] + C[43] <= 1
 R552: C[32] + C[43] <= 1
 R553: C[33] + C[43] <= 1
 R554: C[34] + C[43] <= 1
 R555: C[36] + C[43] <= 1
 R556: C[38] + C[43] <= 1
 R557: C[1] + C[44] <= 1
 R558: C[4] + C[44] <= 1
 R559: C[5] + C[44] <= 1
 R560: C[6] + C[44] <= 1
 R561: C[7] + C[44] <= 1
 R562: C[10] + C[44] <= 1
 R563: C[11] + C[44] <= 1
 R564: C[13] + C[44] <= 1
 R565: C[19] + C[44] <= 1
 R566: C[22] + C[44] <= 1
 R567: C[24] + C[44] <= 1
 R568: C[27] + C[44] <= 1
 R569: C[30] + C[44] <= 1
 R570: C[32] + C[44] <= 1
 R571: C[33] + C[44] <= 1
 R572: C[34] + C[44] <= 1
 R573: C[36] + C[44] <= 1
 R574: C[38] + C[44] <= 1
 R575: C[0] + C[45] <= 1
 R576: C[2] + C[45] <= 1
 R577: C[3] + C[45] <= 1
 R578: C[5] + C[45] <= 1
 R579: C[8] + C[45] <= 1
 R580: C[9] + C[45] <= 1
 R581: C[10] + C[45] <= 1
 R582: C[12] + C[45] <= 1
 R583: C[13] + C[45] <= 1
 R584: C[14] + C[45] <= 1
 R585: C[15] + C[45] <= 1
 R586: C[16] + C[45] <= 1
 R587: C[17] + C[45] <= 1
 R588: C[18] + C[45] <= 1
 R589: C[19] + C[45] <= 1
 R590: C[20] + C[45] <= 1
 R591: C[21] + C[45] <= 1
 R592: C[22] + C[45] <= 1
 R593: C[23] + C[45] <= 1
 R594: C[24] + C[45] <= 1
 R595: C[25] + C[45] <= 1
 R596: C[26] + C[45] <= 1
 R597: C[28] + C[45] <= 1
 R598: C[29] + C[45] <= 1
 R599: C[31] + C[45] <= 1
 R600: C[32] + C[45] <= 1
 R601: C[35] + C[45] <= 1
 R602: C[37] + C[45] <= 1
 R603: C[39] + C[45] <= 1
 R604: C[40] + C[45] <= 1
 R605: C[41] + C[45] <= 1
 R606: C[42] + C[45] <= 1
 R607: C[43] + C[45] <= 1
 R608: C[44] + C[45] <= 1
 R609: C[1] + C[46] <= 1
 R610: C[4] + C[46] <= 1
 R611: C[5] + C[46] <= 1
 R612: C[6] + C[46] <= 1
 R613: C[7] + C[46] <= 1
 R614: C[10] + C[46] <= 1
 R615: C[11] + C[46] <= 1
 R616: C[13] + C[46] <= 1
 R617: C[19] + C[46] <= 1
 R618: C[22] + C[46] <= 1
 R619: C[24] + C[46] <= 1
 R620: C[27] + C[46] <= 1
 R621: C[30] + C[46] <= 1
 R622: C[32] + C[46] <= 1
 R623: C[33] + C[46] <= 1
 R624: C[34] + C[46] <= 1
 R625: C[36] + C[46] <= 1
 R626: C[38] + C[46] <= 1
 R627: C[45] + C[46] <= 1
 R628: C[0] + C[47] <= 1
 R629: C[2] + C[47] <= 1
 R630: C[3] + C[47] <= 1
 R631: C[5] + C[47] <= 1
 R632: C[8] + C[47] <= 1
 R633: C[9] + C[47] <= 1
 R634: C[10] + C[47] <= 1
 R635: C[12] + C[47] <= 1
 R636: C[13] + C[47] <= 1
 R637: C[14] + C[47] <= 1
 R638: C[15] + C[47] <= 1
 R639: C[16] + C[47] <= 1
 R640: C[17] + C[47] <= 1
 R641: C[18] + C[47] <= 1
 R642: C[19] + C[47] <= 1
 R643: C[20] + C[47] <= 1
 R644: C[21] + C[47] <= 1
 R645: C[22] + C[47] <= 1
 R646: C[23] + C[47] <= 1
 R647: C[24] + C[47] <= 1
 R648: C[25] + C[47] <= 1
 R649: C[26] + C[47] <= 1
 R650: C[28] + C[47] <= 1
 R651: C[29] + C[47] <= 1
 R652: C[31] + C[47] <= 1
 R653: C[32] + C[47] <= 1
 R654: C[35] + C[47] <= 1
 R655: C[37] + C[47] <= 1
 R656: C[39] + C[47] <= 1
 R657: C[40] + C[47] <= 1
 R658: C[41] + C[47] <= 1
 R659: C[42] + C[47] <= 1
 R660: C[43] + C[47] <= 1
 R661: C[44] + C[47] <= 1
 R662: C[46] + C[47] <= 1
 R663: C[0] + C[48] <= 1
 R664: C[2] + C[48] <= 1
 R665: C[3] + C[48] <= 1
 R666: C[5] + C[48] <= 1
 R667: C[8] + C[48] <= 1
 R668: C[9] + C[48] <= 1
 R669: C[10] + C[48] <= 1
 R670: C[12] + C[48] <= 1
 R671: C[13] + C[48] <= 1
 R672: C[14] + C[48] <= 1
 R673: C[15] + C[48] <= 1
 R674: C[16] + C[48] <= 1
 R675: C[17] + C[48] <= 1
 R676: C[18] + C[48] <= 1
 R677: C[19] + C[48] <= 1
 R678: C[20] + C[48] <= 1
 R679: C[21] + C[48] <= 1
 R680: C[22] + C[48] <= 1
 R681: C[23] + C[48] <= 1
 R682: C[24] + C[48] <= 1
 R683: C[25] + C[48] <= 1
 R684: C[26] + C[48] <= 1
 R685: C[28] + C[48] <= 1
 R686: C[29] + C[48] <= 1
 R687: C[31] + C[48] <= 1
 R688: C[32] + C[48] <= 1
 R689: C[35] + C[48] <= 1
 R690: C[37] + C[48] <= 1
 R691: C[39] + C[48] <= 1
 R692: C[40] + C[48] <= 1
 R693: C[41] + C[48] <= 1
 R694: C[42] + C[48] <= 1
 R695: C[43] + C[48] <= 1
 R696: C[44] + C[48] <= 1
 R697: C[46] + C[48] <= 1
 R698: C[0] + C[49] <= 1
 R699: C[2] + C[49] <= 1
 R700: C[3] + C[49] <= 1
 R701: C[5] + C[49] <= 1
 R702: C[8] + C[49] <= 1
 R703: C[9] + C[49] <= 1
 R704: C[10] + C[49] <= 1
 R705: C[12] + C[49] <= 1
 R706: C[13] + C[49] <= 1
 R707: C[14] + C[49] <= 1
 R708: C[15] + C[49] <= 1
 R709: C[16] + C[49] <= 1
 R710: C[17] + C[49] <= 1
 R711: C[18] + C[49] <= 1
 R712: C[19] + C[49] <= 1
 R713: C[20] + C[49] <= 1
 R714: C[21] + C[49] <= 1
 R715: C[22] + C[49] <= 1
 R716: C[23] + C[49] <= 1
 R717: C[24] + C[49] <= 1
 R718: C[25] + C[49] <= 1
 R719: C[26] + C[49] <= 1
 R720: C[28] + C[49] <= 1
 R721: C[29] + C[49] <= 1
 R722: C[31] + C[49] <= 1
 R723: C[32] + C[49] <= 1
 R724: C[35] + C[49] <= 1
 R725: C[37] + C[49] <= 1
 R726: C[39] + C[49] <= 1
 R727: C[40] + C[49] <= 1
 R728: C[41] + C[49] <= 1
 R729: C[42] + C[49] <= 1
 R730: C[43] + C[49] <= 1
 R731: C[44] + C[49] <= 1
 R732: C[46] + C[49] <= 1
 R733: C[0] + C[50] <= 1
 R734: C[2] + C[50] <= 1
 R735: C[3] + C[50] <= 1
 R736: C[5] + C[50] <= 1
 R737: C[8] + C[50] <= 1
 R738: C[9] + C[50] <= 1
 R739: C[10] + C[50] <= 1
 R740: C[12] + C[50] <= 1
 R741: C[13] + C[50] <= 1
 R742: C[14] + C[50] <= 1
 R743: C[15] + C[50] <= 1
 R744: C[16] + C[50] <= 1
 R745: C[17] + C[50] <= 1
 R746: C[18] + C[50] <= 1
 R747: C[19] + C[50] <= 1
 R748: C[20] + C[50] <= 1
 R749: C[21] + C[50] <= 1
 R750: C[22] + C[50] <= 1
 R751: C[23] + C[50] <= 1
 R752: C[24] + C[50] <= 1
 R753: C[25] + C[50] <= 1
 R754: C[26] + C[50] <= 1
 R755: C[28] + C[50] <= 1
 R756: C[29] + C[50] <= 1
 R757: C[31] + C[50] <= 1
 R758: C[32] + C[50] <= 1
 R759: C[35] + C[50] <= 1
 R760: C[37] + C[50] <= 1
 R761: C[39] + C[50] <= 1
 R762: C[40] + C[50] <= 1
 R763: C[41] + C[50] <= 1
 R764: C[42] + C[50] <= 1
 R765: C[43] + C[50] <= 1
 R766: C[44] + C[50] <= 1
 R767: C[46] + C[50] <= 1
 R768: C[1] + C[51] <= 1
 R769: C[4] + C[51] <= 1
 R770: C[5] + C[51] <= 1
 R771: C[6] + C[51] <= 1
 R772: C[7] + C[51] <= 1
 R773: C[10] + C[51] <= 1
 R774: C[11] + C[51] <= 1
 R775: C[13] + C[51] <= 1
 R776: C[19] + C[51] <= 1
 R777: C[22] + C[51] <= 1
 R778: C[24] + C[51] <= 1
 R779: C[27] + C[51] <= 1
 R780: C[30] + C[51] <= 1
 R781: C[32] + C[51] <= 1
 R782: C[33] + C[51] <= 1
 R783: C[34] + C[51] <= 1
 R784: C[36] + C[51] <= 1
 R785: C[38] + C[51] <= 1
 R786: C[45] + C[51] <= 1
 R787: C[47] + C[51] <= 1
 R788: C[48] + C[51] <= 1
 R789: C[49] + C[51] <= 1
 R790: C[50] + C[51] <= 1
 R791: C[1] + C[52] <= 1
 R792: C[4] + C[52] <= 1
 R793: C[5] + C[52] <= 1
 R794: C[6] + C[52] <= 1
 R795: C[7] + C[52] <= 1
 R796: C[10] + C[52] <= 1
 R797: C[11] + C[52] <= 1
 R798: C[13] + C[52] <= 1
 R799: C[19] + C[52] <= 1
 R800: C[22] + C[52] <= 1
 R801: C[24] + C[52] <= 1
 R802: C[27] + C[52] <= 1
 R803: C[30] + C[52] <= 1
 R804: C[32] + C[52] <= 1
 R805: C[33] + C[52] <= 1
 R806: C[34] + C[52] <= 1
 R807: C[36] + C[52] <= 1
 R808: C[38] + C[52] <= 1
 R809: C[45] + C[52] <= 1
 R810: C[47] + C[52] <= 1
 R811: C[48] + C[52] <= 1
 R812: C[49] + C[52] <= 1
 R813: C[50] + C[52] <= 1
 R814: C[0] + C[53] <= 1
 R815: C[1] + C[53] <= 1
 R816: C[2] + C[53] <= 1
 R817: C[3] + C[53] <= 1
 R818: C[4] + C[53] <= 1
 R819: C[6] + C[53] <= 1
 R820: C[7] + C[53] <= 1
 R821: C[8] + C[53] <= 1
 R822: C[9] + C[53] <= 1
 R823: C[10] + C[53] <= 1
 R824: C[11] + C[53] <= 1
 R825: C[12] + C[53] <= 1
 R826: C[14] + C[53] <= 1
 R827: C[15] + C[53] <= 1
 R828: C[16] + C[53] <= 1
 R829: C[17] + C[53] <= 1
 R830: C[18] + C[53] <= 1
 R831: C[19] + C[53] <= 1
 R832: C[20] + C[53] <= 1
 R833: C[21] + C[53] <= 1
 R834: C[22] + C[53] <= 1
 R835: C[23] + C[53] <= 1
 R836: C[25] + C[53] <= 1
 R837: C[26] + C[53] <= 1
 R838: C[27] + C[53] <= 1
 R839: C[28] + C[53] <= 1
 R840: C[29] + C[53] <= 1
 R841: C[30] + C[53] <= 1
 R842: C[31] + C[53] <= 1
 R843: C[32] + C[53] <= 1
 R844: C[33] + C[53] <= 1
 R845: C[34] + C[53] <= 1
 R846: C[35] + C[53] <= 1
 R847: C[36] + C[53] <= 1
 R848: C[37] + C[53] <= 1
 R849: C[38] + C[53] <= 1
 R850: C[39] + C[53] <= 1
 R851: C[40] + C[53] <= 1
 R852: C[41] + C[53] <= 1
 R853: C[42] + C[53] <= 1
 R854: C[43] + C[53] <= 1
 R855: C[44] + C[53] <= 1
 R856: C[45] + C[53] <= 1
 R857: C[46] + C[53] <= 1
 R858: C[47] + C[53] <= 1
 R859: C[48] + C[53] <= 1
 R860: C[49] + C[53] <= 1
 R861: C[50] + C[53] <= 1
 R862: C[51] + C[53] <= 1
 R863: C[52] + C[53] <= 1
 R864: C[0] + C[54] <= 1
 R865: C[2] + C[54] <= 1
 R866: C[3] + C[54] <= 1
 R867: C[5] + C[54] <= 1
 R868: C[8] + C[54] <= 1
 R869: C[9] + C[54] <= 1
 R870: C[10] + C[54] <= 1
 R871: C[12] + C[54] <= 1
 R872: C[13] + C[54] <= 1
 R873: C[14] + C[54] <= 1
 R874: C[15] + C[54] <= 1
 R875: C[16] + C[54] <= 1
 R876: C[17] + C[54] <= 1
 R877: C[18] + C[54] <= 1
 R878: C[19] + C[54] <= 1
 R879: C[20] + C[54] <= 1
 R880: C[21] + C[54] <= 1
 R881: C[22] + C[54] <= 1
 R882: C[23] + C[54] <= 1
 R883: C[24] + C[54] <= 1
 R884: C[25] + C[54] <= 1
 R885: C[26] + C[54] <= 1
 R886: C[28] + C[54] <= 1
 R887: C[29] + C[54] <= 1
 R888: C[31] + C[54] <= 1
 R889: C[32] + C[54] <= 1
 R890: C[35] + C[54] <= 1
 R891: C[37] + C[54] <= 1
 R892: C[39] + C[54] <= 1
 R893: C[40] + C[54] <= 1
 R894: C[41] + C[54] <= 1
 R895: C[42] + C[54] <= 1
 R896: C[43] + C[54] <= 1
 R897: C[44] + C[54] <= 1
 R898: C[46] + C[54] <= 1
 R899: C[51] + C[54] <= 1
 R900: C[52] + C[54] <= 1
 R901: C[53] + C[54] <= 1
 R902: C[1] + C[55] <= 1
 R903: C[4] + C[55] <= 1
 R904: C[5] + C[55] <= 1
 R905: C[6] + C[55] <= 1
 R906: C[7] + C[55] <= 1
 R907: C[10] + C[55] <= 1
 R908: C[11] + C[55] <= 1
 R909: C[13] + C[55] <= 1
 R910: C[19] + C[55] <= 1
 R911: C[22] + C[55] <= 1
 R912: C[24] + C[55] <= 1
 R913: C[27] + C[55] <= 1
 R914: C[30] + C[55] <= 1
 R915: C[32] + C[55] <= 1
 R916: C[33] + C[55] <= 1
 R917: C[34] + C[55] <= 1
 R918: C[36] + C[55] <= 1
 R919: C[38] + C[55] <= 1
 R920: C[45] + C[55] <= 1
 R921: C[47] + C[55] <= 1
 R922: C[48] + C[55] <= 1
 R923: C[49] + C[55] <= 1
 R924: C[50] + C[55] <= 1
 R925: C[53] + C[55] <= 1
 R926: C[54] + C[55] <= 1
Bounds
Binaries
 C[0] C[1] C[2] C[3] C[4] C[5] C[6] C[7] C[8] C[9] C[10] C[11] C[12] C[13]
 C[14] C[15] C[16] C[17] C[18] C[19] C[20] C[21] C[22] C[23] C[24] C[25]
 C[26] C[27] C[28] C[29] C[30] C[31] C[32] C[33] C[34] C[35] C[36] C[37]
 C[38] C[39] C[40] C[41] C[42] C[43] C[44] C[45] C[46] C[47] C[48] C[49]
 C[50] C[51] C[52] C[53] C[54] C[55]
End
